set VV := 0 1 2 3 4 5 6 7 8 9 10 11 12 13 14 15 16 17 18 19 20 21 22 23 24 25 26 27 28 29 30 31 32 33 34 35 36 37 38 39 40 41 42 43 ;
set VS := 0 1 2 3 4 5 6 7 8 9 10 11 12 13 14 15 16 17 18 19 20 21 22 23 24 25 26 27 28 29 30 31 32 33 34 35 36 37 38 39 40 41 42 43 44 45 46 47 48 49 50 51 52 53 54 55 56 57 58 59 60 61 62 63 64 65 66 67 68 69 70 71 72 73 74 75 76 77 78 79 80 81 82 83 84 85 86 87 88 89 90 91 ;
param cv := 
0 21
1 14
2 17
3 19
4 11
5 17
6 21
7 24
8 16
9 12
10 16
11 20
12 14
13 21
14 21
15 23
16 18
17 24
18 18
19 18
20 12
21 19
22 16
23 17
24 19
25 14
26 14
27 17
28 24
29 17
30 13
31 24
32 25
33 25
34 21
35 21
36 16
37 16
38 18
39 16
40 20
41 11
42 17
43 15
;
param cs := 
0 22
1 28
2 35
3 21
4 36
5 28
6 20
7 27
8 37
9 33
10 37
11 22
12 29
13 25
14 33
15 29
16 23
17 40
18 36
19 30
20 30
21 24
22 38
23 24
24 36
25 26
26 21
27 39
28 29
29 39
30 39
31 23
32 25
33 37
34 28
35 40
36 40
37 30
38 21
39 39
40 30
41 23
42 32
43 33
44 21
45 30
46 34
47 30
48 40
49 31
50 40
51 33
52 22
53 33
54 20
55 34
56 24
57 26
58 25
59 23
60 23
61 36
62 23
63 25
64 33
65 28
66 30
67 25
68 34
69 35
70 21
71 39
72 32
73 29
74 32
75 20
76 26
77 40
78 28
79 32
80 32
81 28
82 39
83 28
84 33
85 30
86 35
87 30
88 36
89 37
90 36
91 24
;
param bv:	 0 1 2 3 4 5 6 7 8 9 10 11 12 13 14 15 16 17 18 19 20 21 22 23 24 25 26 27 28 29 30 31 32 33 34 35 36 37 38 39 40 41 42 43 := 
		0 0 0 0 0 0 0 0 0 0 0 0 0 0 0 0 0 0 13 0 0 0 0 0 0 0 0 0 0 0 0 0 0 0 0 0 0 18 0 14 15 0 18 0 0 
		1 0 0 0 0 0 0 0 0 0 0 0 0 20 0 0 0 0 0 0 0 0 0 0 0 0 0 0 0 0 0 24 0 0 0 0 0 0 0 0 21 0 25 0 0 
		2 0 0 0 0 0 0 0 0 0 23 0 0 0 0 0 0 16 0 0 0 0 0 0 0 0 0 0 0 0 0 0 0 0 0 0 0 0 0 0 0 24 0 0 0 
		3 0 0 0 0 0 0 0 0 0 0 0 0 0 14 0 0 0 0 0 0 0 0 0 0 0 0 0 0 0 0 0 0 0 0 0 0 0 0 0 0 0 0 0 0 
		4 0 0 0 0 0 0 0 0 0 0 0 0 0 0 0 0 0 0 0 0 0 0 0 0 0 0 0 0 22 0 0 0 0 0 0 0 0 0 0 0 0 0 0 0 
		5 0 0 0 0 0 0 0 0 15 0 0 0 0 0 0 0 0 0 0 0 0 0 0 0 0 0 0 0 0 0 0 0 0 0 0 0 0 0 0 0 0 0 0 0 
		6 0 0 0 0 0 0 0 22 0 0 0 18 0 0 0 0 0 0 0 23 0 0 0 0 0 13 0 0 0 0 0 0 0 23 0 0 18 0 0 0 0 0 0 0 
		7 0 0 0 0 0 0 0 0 0 0 0 0 0 24 0 0 0 0 0 0 0 0 0 0 0 0 0 0 0 0 0 0 0 0 0 0 0 0 0 0 14 0 0 0 
		8 0 0 0 0 0 0 0 0 0 19 0 0 0 17 0 0 0 0 0 0 0 11 0 0 0 0 0 0 0 0 0 0 12 0 0 0 0 0 0 17 0 0 0 25 
		9 0 0 0 0 0 0 0 0 0 0 0 0 17 0 0 0 0 22 0 0 0 10 0 0 0 0 0 0 0 0 0 0 0 0 0 21 0 10 0 0 0 0 0 0 
		10 0 0 0 0 0 0 0 0 0 0 0 0 0 0 0 0 0 0 0 0 0 0 0 13 0 0 0 0 21 0 0 0 0 0 0 0 0 0 0 0 23 0 14 0 
		11 0 0 0 0 0 0 0 0 0 0 0 0 0 0 16 25 0 0 0 0 0 0 0 0 0 18 0 0 0 0 0 0 24 0 0 0 0 0 0 0 0 0 0 22 
		12 0 0 0 0 0 0 0 0 0 0 0 0 0 0 0 0 0 0 25 0 0 0 0 0 0 0 0 0 18 0 0 0 0 0 13 0 0 0 0 0 0 0 25 0 
		13 0 0 0 0 0 0 0 0 0 0 0 0 0 0 0 0 0 0 0 0 0 0 0 0 16 0 0 17 19 0 0 15 0 0 23 0 0 0 0 0 0 0 0 0 
		14 0 0 0 0 0 0 0 0 0 0 0 0 0 0 0 0 0 0 0 22 0 0 0 0 0 0 0 0 11 0 0 0 0 0 16 0 0 0 0 0 0 0 0 0 
		15 0 0 0 0 0 0 0 0 0 0 0 0 0 0 0 0 0 0 0 0 0 0 0 12 0 0 0 0 0 20 0 13 0 0 0 0 0 0 0 0 0 0 0 0 
		16 0 0 0 0 0 0 0 0 0 0 0 0 0 0 0 0 0 0 0 0 0 0 0 0 0 13 0 0 0 0 0 0 0 0 0 0 0 19 0 0 0 0 0 0 
		17 0 0 0 0 0 0 0 0 0 0 0 0 0 0 0 0 0 0 0 0 0 0 11 0 23 0 0 15 0 10 0 0 0 20 12 0 0 0 0 22 0 15 0 0 
		18 0 0 0 0 0 0 0 0 0 0 0 0 0 0 0 0 0 0 0 0 0 0 0 0 0 0 0 20 0 0 0 21 0 0 0 0 0 0 0 0 0 0 10 0 
		19 0 0 0 0 0 0 0 0 0 0 0 0 0 0 0 0 0 0 0 0 17 0 0 0 0 0 0 0 0 0 0 0 0 20 0 0 13 0 0 14 0 0 0 0 
		20 0 0 0 0 0 0 0 0 0 0 0 0 0 0 0 0 0 0 0 0 0 0 0 0 0 0 0 0 23 0 0 18 22 0 0 0 0 0 0 0 0 0 0 0 
		21 0 0 0 0 0 0 0 0 0 0 0 0 0 0 0 0 0 0 0 0 0 0 0 0 0 0 0 0 0 0 0 15 17 13 0 0 0 0 0 0 0 16 0 0 
		22 0 0 0 0 0 0 0 0 0 0 0 0 0 0 0 0 0 0 0 0 0 0 0 0 0 24 0 0 0 0 0 0 0 0 0 0 0 20 0 23 0 0 0 0 
		23 0 0 0 0 0 0 0 0 0 0 0 0 0 0 0 0 0 0 0 0 0 0 0 0 24 0 0 17 16 0 0 0 0 0 0 0 0 0 0 14 0 22 23 0 
		24 0 0 0 0 0 0 0 0 0 0 0 0 0 0 0 0 0 0 0 0 0 0 0 0 0 0 0 0 0 0 0 0 0 0 0 0 19 0 0 18 0 0 0 0 
		25 0 0 0 0 0 0 0 0 0 0 0 0 0 0 0 0 0 0 0 0 0 0 0 0 0 0 0 0 0 0 11 0 0 15 0 0 0 0 0 0 0 14 0 0 
		26 0 0 0 0 0 0 0 0 0 0 0 0 0 0 0 0 0 0 0 0 0 0 0 0 0 0 0 0 0 0 0 0 23 0 0 0 0 0 0 0 0 0 0 18 
		27 0 0 0 0 0 0 0 0 0 0 0 0 0 0 0 0 0 0 0 0 0 0 0 0 0 0 0 0 0 0 0 0 0 0 19 0 0 16 0 0 0 0 0 20 
		28 0 0 0 0 0 0 0 0 0 0 0 0 0 0 0 0 0 0 0 0 0 0 0 0 0 0 0 0 0 0 0 0 0 0 0 0 23 0 15 16 0 0 0 0 
		29 0 0 0 0 0 0 0 0 0 0 0 0 0 0 0 0 0 0 0 0 0 0 0 0 0 0 0 0 0 0 0 0 0 22 0 0 0 0 0 0 0 0 0 0 
		30 0 0 0 0 0 0 0 0 0 0 0 0 0 0 0 0 0 0 0 0 0 0 0 0 0 0 0 0 0 0 0 0 0 0 0 13 0 0 0 0 0 0 0 0 
		31 0 0 0 0 0 0 0 0 0 0 0 0 0 0 0 0 0 0 0 0 0 0 0 0 0 0 0 0 0 0 0 0 0 0 0 0 0 0 0 12 0 0 0 0 
		32 0 0 0 0 0 0 0 0 0 0 0 0 0 0 0 0 0 0 0 0 0 0 0 0 0 0 0 0 0 0 0 0 0 0 0 0 0 0 0 0 16 0 0 0 
		33 0 0 0 0 0 0 0 0 0 0 0 0 0 0 0 0 0 0 0 0 0 0 0 0 0 0 0 0 0 0 0 0 0 0 0 0 0 24 0 24 0 0 0 0 
		34 0 0 0 0 0 0 0 0 0 0 0 0 0 0 0 0 0 0 0 0 0 0 0 0 0 0 0 0 0 0 0 0 0 0 0 0 0 0 11 0 20 0 11 22 
		35 0 0 0 0 0 0 0 0 0 0 0 0 0 0 0 0 0 0 0 0 0 0 0 0 0 0 0 0 0 0 0 0 0 0 0 0 0 0 0 0 0 0 0 0 
		36 0 0 0 0 0 0 0 0 0 0 0 0 0 0 0 0 0 0 0 0 0 0 0 0 0 0 0 0 0 0 0 0 0 0 0 0 0 0 0 0 0 0 0 0 
		37 0 0 0 0 0 0 0 0 0 0 0 0 0 0 0 0 0 0 0 0 0 0 0 0 0 0 0 0 0 0 0 0 0 0 0 0 0 0 0 0 0 0 0 0 
		38 0 0 0 0 0 0 0 0 0 0 0 0 0 0 0 0 0 0 0 0 0 0 0 0 0 0 0 0 0 0 0 0 0 0 0 0 0 0 0 0 0 0 0 0 
		39 0 0 0 0 0 0 0 0 0 0 0 0 0 0 0 0 0 0 0 0 0 0 0 0 0 0 0 0 0 0 0 0 0 0 0 0 0 0 0 0 0 0 0 0 
		40 0 0 0 0 0 0 0 0 0 0 0 0 0 0 0 0 0 0 0 0 0 0 0 0 0 0 0 0 0 0 0 0 0 0 0 0 0 0 0 0 0 0 0 0 
		41 0 0 0 0 0 0 0 0 0 0 0 0 0 0 0 0 0 0 0 0 0 0 0 0 0 0 0 0 0 0 0 0 0 0 0 0 0 0 0 0 0 0 0 0 
		42 0 0 0 0 0 0 0 0 0 0 0 0 0 0 0 0 0 0 0 0 0 0 0 0 0 0 0 0 0 0 0 0 0 0 0 0 0 0 0 0 0 0 0 0 
		43 0 0 0 0 0 0 0 0 0 0 0 0 0 0 0 0 0 0 0 0 0 0 0 0 0 0 0 0 0 0 0 0 0 0 0 0 0 0 0 0 0 0 0 0 
;
param bs:	 0 1 2 3 4 5 6 7 8 9 10 11 12 13 14 15 16 17 18 19 20 21 22 23 24 25 26 27 28 29 30 31 32 33 34 35 36 37 38 39 40 41 42 43 44 45 46 47 48 49 50 51 52 53 54 55 56 57 58 59 60 61 62 63 64 65 66 67 68 69 70 71 72 73 74 75 76 77 78 79 80 81 82 83 84 85 86 87 88 89 90 91 := 
		0 0 0 0 0 0 0 0 0 0 0 0 0 34 0 0 0 0 0 0 0 0 0 0 35 0 0 0 0 0 0 0 0 0 0 0 0 0 0 0 35 0 0 0 0 0 0 0 0 0 26 0 0 0 0 0 30 0 0 0 0 0 0 0 0 0 0 0 0 0 0 0 24 0 0 0 0 0 0 21 0 0 0 0 0 0 0 0 0 23 0 0 0 
		1 0 0 26 0 0 0 0 0 0 0 0 0 0 0 0 0 0 35 0 0 0 0 0 0 0 0 0 36 25 0 0 0 0 0 0 32 0 0 0 0 0 0 0 0 0 0 22 0 0 0 0 0 0 20 0 28 0 0 37 0 0 0 33 0 0 23 0 25 0 0 0 0 0 0 0 0 0 0 0 0 0 0 0 24 0 0 0 0 0 0 0 0 
		2 0 26 0 0 0 0 0 0 0 0 0 0 0 0 27 0 0 0 31 0 0 0 0 0 0 0 0 28 0 24 0 0 0 0 0 0 0 0 0 0 0 39 0 0 0 0 0 0 0 0 0 0 0 0 0 33 0 0 28 0 35 0 34 0 0 0 0 21 0 0 0 0 0 0 39 0 0 26 0 0 0 0 0 0 0 0 0 0 0 0 0 0 
		3 0 0 0 0 0 0 0 0 0 0 0 0 0 0 0 0 0 0 0 0 21 0 0 0 0 0 0 0 0 0 0 40 0 25 0 0 0 0 0 0 0 0 0 0 0 0 0 0 0 0 0 32 0 26 0 0 0 0 0 0 0 0 0 0 0 0 0 0 0 0 0 0 0 0 0 0 0 0 0 0 37 0 28 0 0 0 36 0 0 0 0 30 
		4 0 0 0 0 0 0 0 0 0 0 0 0 0 0 0 0 0 0 0 0 0 40 0 0 0 28 0 0 0 0 0 0 0 0 40 0 0 0 0 0 0 0 0 0 0 0 0 0 0 0 0 0 0 40 0 0 0 0 34 0 0 0 0 0 0 33 0 0 0 21 32 0 0 0 0 0 0 0 40 0 0 0 0 0 0 0 0 0 0 0 0 0 
		5 0 0 0 0 0 0 0 0 0 0 0 0 0 0 0 0 0 0 28 0 0 0 25 0 0 0 0 0 0 21 0 0 0 0 0 0 0 0 0 0 0 0 0 0 0 0 26 0 0 0 0 0 0 0 29 0 0 0 0 0 0 0 0 0 0 33 0 23 29 0 0 0 0 0 0 0 0 39 0 26 0 0 39 0 0 0 0 0 40 0 0 32 
		6 0 0 0 0 0 0 0 0 0 31 0 0 0 0 0 0 0 0 0 0 0 0 0 0 0 0 0 0 0 0 0 0 0 0 0 0 0 0 0 0 0 0 0 0 0 0 0 24 0 35 0 0 0 0 0 0 0 0 0 0 0 0 0 0 0 0 0 0 0 0 0 0 0 0 0 0 0 0 0 0 0 0 0 0 0 0 0 0 0 0 30 0 
		7 0 0 0 0 0 0 0 0 0 0 0 0 0 0 0 0 0 0 0 23 0 0 0 0 0 0 0 0 0 0 0 0 0 0 0 22 0 35 0 0 0 0 39 0 0 0 0 0 0 0 0 0 0 0 0 0 0 0 0 25 0 0 0 0 0 0 0 22 0 0 0 0 0 0 0 0 0 0 0 0 0 0 38 0 0 0 0 34 40 0 25 0 
		8 0 0 0 0 0 0 0 0 0 38 0 0 33 0 0 0 0 0 0 0 0 34 0 0 0 0 0 0 0 0 21 0 0 34 0 0 0 0 0 0 0 0 0 0 0 0 0 0 0 0 0 40 0 0 0 25 0 0 24 0 0 0 0 0 0 0 0 26 0 40 0 0 0 34 39 0 0 0 0 0 23 0 38 0 0 0 0 0 0 0 0 25 
		9 0 0 0 0 0 0 31 0 38 0 0 0 0 0 0 0 0 0 0 0 0 0 36 36 0 0 22 29 0 0 0 0 0 0 0 0 0 0 0 27 0 0 36 0 0 0 0 0 0 36 0 35 0 35 0 30 0 39 0 0 0 0 0 33 0 0 0 0 37 0 0 28 0 0 0 0 0 33 23 0 0 0 0 37 0 0 0 0 25 0 0 0 
		10 0 0 0 0 0 0 0 0 0 0 0 0 37 0 0 0 0 0 31 0 0 0 0 0 0 22 0 0 0 0 0 0 30 0 0 0 0 0 0 26 0 0 38 0 0 0 0 0 0 0 0 0 0 0 0 0 0 0 0 0 0 0 40 0 33 0 0 0 0 0 35 0 0 0 0 0 0 0 0 35 0 0 0 0 0 22 0 0 23 35 0 0 
		11 0 0 0 0 0 0 0 0 0 0 0 0 0 0 0 0 0 0 0 0 0 32 0 0 0 0 0 0 23 0 0 0 0 0 0 0 0 0 0 0 0 0 0 0 0 0 0 0 0 0 0 0 0 0 0 0 0 0 0 0 0 0 0 0 0 0 0 0 0 0 0 0 0 0 0 0 39 0 0 0 0 0 0 0 0 0 0 0 0 0 0 0 
		12 34 0 0 0 0 0 0 0 33 0 37 0 0 0 0 0 0 0 0 0 0 0 0 0 0 0 0 28 0 0 0 0 31 0 0 0 0 0 0 0 0 0 37 0 0 0 0 0 0 0 0 0 0 0 0 0 0 0 0 0 0 0 0 0 0 38 0 0 0 0 0 0 32 21 0 0 0 0 0 0 0 0 0 37 22 0 0 0 0 0 0 0 
		13 0 0 0 0 0 0 0 0 0 0 0 0 0 0 33 0 0 0 0 0 0 0 0 0 0 40 0 0 0 0 0 0 0 0 0 0 0 0 0 0 0 0 0 0 0 0 0 0 0 0 20 0 0 0 38 0 20 35 0 0 0 0 0 0 0 0 0 0 0 0 0 31 0 0 28 0 0 34 0 0 0 0 0 0 35 0 0 0 30 0 0 0 
		14 0 0 27 0 0 0 0 0 0 0 0 0 0 33 0 0 0 0 0 0 0 0 0 0 0 0 0 34 0 0 0 0 0 0 0 0 0 28 0 0 0 0 0 0 0 0 0 0 0 0 0 0 31 39 0 0 0 0 0 0 0 0 0 0 0 0 0 24 0 0 0 22 0 28 0 0 0 0 0 29 0 0 0 0 0 23 0 40 0 0 0 33 
		15 0 0 0 0 0 0 0 0 0 0 0 0 0 0 0 0 0 0 28 0 33 0 0 0 0 0 0 0 0 0 0 0 0 0 0 0 0 0 0 0 22 0 23 31 0 0 0 0 0 0 0 0 0 0 0 0 35 0 0 26 0 0 0 0 0 33 0 0 0 0 0 0 0 0 0 0 0 30 0 0 0 0 0 0 0 0 0 0 0 0 0 0 
		16 0 0 0 0 0 0 0 0 0 0 0 0 0 0 0 0 0 0 0 24 0 0 0 0 0 0 0 0 21 0 0 39 0 23 0 0 0 0 0 0 0 0 0 0 0 0 0 0 0 0 0 0 0 0 0 0 0 0 28 0 0 32 0 0 0 0 0 0 0 0 0 0 0 0 0 0 0 0 30 0 20 0 0 0 0 0 33 38 22 0 0 0 
		17 0 35 0 0 0 0 0 0 0 0 0 0 0 0 0 0 0 0 0 0 0 0 33 0 0 0 0 0 0 0 0 0 0 21 0 0 0 0 0 0 0 0 0 0 0 0 0 0 0 0 0 0 0 0 0 0 0 0 0 0 0 40 0 30 0 23 0 0 0 0 0 25 0 0 26 0 0 33 0 0 0 0 0 39 0 0 0 0 0 0 0 0 
		18 0 0 31 0 0 28 0 0 0 0 31 0 0 0 0 28 0 0 0 0 0 0 0 21 0 31 0 34 0 37 0 24 22 26 0 0 0 0 0 0 0 0 0 0 0 0 0 0 0 0 0 0 0 0 24 0 32 0 0 0 0 0 0 0 0 0 0 0 0 0 0 0 0 0 0 0 0 28 0 0 0 0 0 30 0 0 0 0 0 0 0 0 
		19 0 0 0 0 0 0 0 23 0 0 0 0 0 0 0 0 24 0 0 0 0 0 0 0 0 0 0 0 0 0 0 0 0 0 0 0 0 0 0 36 0 0 0 0 0 0 27 0 0 34 40 0 0 0 0 0 0 0 0 0 0 29 0 0 0 0 0 0 0 0 0 0 0 0 0 0 0 0 0 0 0 0 0 0 0 0 0 0 0 0 0 0 
		20 0 0 0 21 0 0 0 0 0 0 0 0 0 0 0 33 0 0 0 0 0 0 0 0 0 0 0 0 0 0 0 0 0 0 0 0 0 0 0 0 0 0 39 0 0 0 20 20 0 0 0 0 0 0 0 0 0 0 0 0 0 0 0 0 0 0 0 0 0 0 0 0 0 0 0 0 0 0 0 0 0 0 26 0 0 0 0 0 0 0 0 0 
		21 0 0 0 0 40 0 0 0 34 0 0 32 0 0 0 0 0 0 0 0 0 0 0 0 0 0 20 29 0 0 0 0 0 0 0 0 31 0 0 0 0 0 0 0 0 0 0 0 0 0 0 27 0 0 0 0 0 0 25 0 0 0 37 28 0 24 0 0 0 0 25 0 32 0 0 0 39 0 0 0 0 0 0 40 0 0 0 0 0 0 0 0 
		22 0 0 0 0 0 25 0 0 0 36 0 0 0 0 0 0 0 33 0 0 0 0 0 0 0 0 0 0 23 36 0 0 23 0 0 0 0 0 20 0 0 0 0 0 0 0 0 37 0 0 0 0 0 0 0 0 0 0 0 26 0 0 0 0 0 32 0 0 0 0 0 25 0 0 0 0 0 33 0 0 0 0 22 0 0 0 0 0 0 0 29 0 
		23 35 0 0 0 0 0 0 0 0 36 0 0 0 0 0 0 0 0 21 0 0 0 0 0 0 0 0 27 0 0 0 0 0 0 0 0 0 0 0 40 0 0 0 27 0 0 0 0 0 0 0 38 0 0 0 0 0 0 0 0 0 37 0 0 0 0 0 0 0 0 0 0 0 0 23 0 0 0 0 0 0 0 0 0 0 0 0 0 0 26 0 0 
		24 0 0 0 0 0 0 0 0 0 0 0 0 0 0 0 0 0 0 0 0 0 0 0 0 0 0 0 0 0 0 0 0 0 28 0 0 0 0 0 0 0 0 0 0 0 0 0 0 0 0 0 0 0 0 0 0 35 0 0 36 0 0 0 0 0 0 0 0 0 31 0 0 0 0 0 0 0 0 0 0 0 29 0 0 0 0 0 0 0 0 31 0 
		25 0 0 0 0 28 0 0 0 0 0 22 0 0 40 0 0 0 0 31 0 0 0 0 0 0 0 0 0 0 0 0 0 0 0 31 0 0 0 0 0 0 0 0 0 0 0 0 0 0 0 0 0 0 0 0 0 32 0 0 0 0 0 0 0 0 0 22 0 0 0 0 0 0 0 0 0 0 0 0 0 0 0 40 0 34 0 0 0 0 0 0 0 
		26 0 0 0 0 0 0 0 0 0 22 0 0 0 0 0 0 0 0 0 0 0 20 0 0 0 0 0 0 40 0 0 0 0 36 0 0 0 0 0 0 0 0 0 0 0 0 0 0 0 0 0 0 0 0 0 0 0 0 24 0 0 0 0 36 0 0 0 0 0 0 0 0 26 33 0 0 0 0 0 0 0 0 0 0 0 0 0 0 0 0 0 0 
		27 0 36 28 0 0 0 0 0 0 29 0 0 28 0 34 0 0 0 34 0 0 29 0 27 0 0 0 0 0 0 0 0 0 0 0 0 0 0 0 0 0 0 22 0 0 0 0 0 0 0 0 29 0 0 0 0 0 0 0 0 0 0 33 0 0 0 0 0 0 0 0 0 0 0 0 0 0 0 0 28 0 0 0 0 0 0 25 0 0 0 0 0 
		28 0 25 0 0 0 0 0 0 0 0 0 23 0 0 0 0 21 0 0 0 0 0 23 0 0 0 40 0 0 28 0 0 0 0 0 28 0 0 0 0 0 27 0 0 0 0 20 25 0 0 0 38 0 0 0 23 0 0 0 0 0 0 0 0 24 0 0 0 0 0 0 0 0 0 0 0 0 0 0 0 0 0 0 0 0 0 0 0 0 35 0 34 
		29 0 0 24 0 0 21 0 0 0 0 0 0 0 0 0 0 0 0 37 0 0 0 36 0 0 0 0 0 28 0 0 0 0 0 0 0 0 0 0 0 0 23 0 35 0 0 0 0 23 0 0 0 36 31 34 0 0 0 26 0 0 0 0 0 0 21 0 0 0 0 0 0 37 0 0 0 0 0 24 0 26 0 0 0 0 0 0 0 0 0 27 0 
		30 0 0 0 0 0 0 0 0 21 0 0 0 0 0 0 0 0 0 0 0 0 0 0 0 0 0 0 0 0 0 0 0 0 0 25 0 0 0 0 0 0 0 0 0 0 0 0 0 0 34 28 0 0 0 0 0 0 0 0 0 0 0 0 0 0 0 0 0 36 0 0 0 0 0 0 0 0 0 0 0 33 24 0 0 0 0 0 0 0 0 0 0 
		31 0 0 0 40 0 0 0 0 0 0 0 0 0 0 0 0 39 0 24 0 0 0 0 0 0 0 0 0 0 0 0 0 0 0 0 0 0 0 0 0 0 0 0 0 0 0 0 0 28 0 0 0 0 0 0 0 0 0 32 0 0 0 0 0 0 0 0 0 0 0 0 29 0 0 0 28 0 0 0 0 0 0 0 0 0 0 0 0 32 0 0 0 
		32 0 0 0 0 0 0 0 0 0 0 30 0 31 0 0 0 0 0 22 0 0 0 23 0 0 0 0 0 0 0 0 0 0 21 0 0 0 0 0 0 0 0 0 0 0 0 0 0 0 0 0 0 0 0 0 0 22 0 0 0 0 0 35 38 0 0 0 0 0 0 20 0 0 37 0 0 31 0 0 0 0 0 0 0 0 0 0 0 0 0 0 0 
		33 0 0 0 25 0 0 0 0 34 0 0 0 0 0 0 0 23 21 26 0 0 0 0 0 28 0 36 0 0 0 0 0 21 0 0 0 0 0 0 0 0 0 0 0 0 0 0 0 39 0 0 0 0 0 0 30 0 0 0 0 0 0 0 36 0 0 0 0 0 0 0 40 0 0 0 0 0 0 0 0 0 0 0 0 0 0 29 0 0 40 0 28 
		34 0 0 0 0 40 0 0 0 0 0 0 0 0 0 0 0 0 0 0 0 0 0 0 0 0 31 0 0 0 0 25 0 0 0 0 0 0 0 0 0 0 0 0 0 0 37 0 0 25 0 0 0 0 0 0 0 0 0 0 0 0 0 0 0 0 34 0 0 0 0 0 0 0 0 0 0 0 0 0 31 32 0 0 0 0 0 0 0 0 0 0 0 
		35 0 32 0 0 0 0 0 22 0 0 0 0 0 0 0 0 0 0 0 0 0 0 0 0 0 0 0 0 28 0 0 0 0 0 0 0 0 0 0 0 0 0 0 0 0 0 0 0 0 0 0 0 30 35 0 0 0 0 0 0 0 0 0 0 31 0 35 0 0 0 0 0 29 0 0 0 0 0 0 0 0 0 0 0 0 0 0 0 0 0 0 0 
		36 0 0 0 0 0 0 0 0 0 0 0 0 0 0 0 0 0 0 0 0 0 31 0 0 0 0 0 0 0 0 0 0 0 0 0 0 0 0 0 0 0 0 0 0 0 0 0 0 0 0 0 21 0 0 0 0 28 0 25 0 0 0 0 0 0 0 0 36 0 0 0 0 23 36 0 0 30 0 0 0 0 0 0 0 0 0 0 0 0 0 0 0 
		37 0 0 0 0 0 0 0 35 0 0 0 0 0 0 28 0 0 0 0 0 0 0 0 0 0 0 0 0 0 0 0 0 0 0 0 0 0 0 0 0 0 24 39 0 0 0 31 0 0 0 0 0 0 0 0 0 0 0 22 0 0 35 0 0 28 27 0 0 0 0 0 22 0 0 24 20 0 0 37 0 0 0 0 0 0 0 0 0 0 0 0 0 
		38 0 0 0 0 0 0 0 0 0 0 0 0 0 0 0 0 0 0 0 0 0 0 20 0 0 0 0 0 0 0 0 0 0 0 0 0 0 0 0 0 0 0 0 38 35 39 0 0 0 28 34 0 0 0 0 0 0 0 0 0 0 0 0 0 0 0 0 0 0 0 0 0 0 0 0 0 0 0 0 0 0 27 25 0 29 0 0 0 0 0 0 0 
		39 35 0 0 0 0 0 0 0 0 27 26 0 0 0 0 0 0 0 0 36 0 0 0 40 0 0 0 0 0 0 0 0 0 0 0 0 0 0 0 0 0 0 0 0 0 0 0 0 0 0 0 0 0 0 0 0 0 0 0 0 0 0 0 0 33 0 0 0 0 0 20 0 0 36 0 0 0 0 0 0 0 0 0 0 0 0 0 0 0 32 0 0 
		40 0 0 0 0 0 0 0 0 0 0 0 0 0 0 0 22 0 0 0 0 0 0 0 0 0 0 0 0 0 0 0 0 0 0 0 0 0 0 0 0 0 0 0 0 38 0 25 0 37 0 0 0 28 0 0 0 0 0 0 0 0 37 0 0 0 0 0 0 0 0 0 31 0 0 0 0 0 0 0 0 0 0 38 0 0 0 29 0 0 0 0 0 
		41 0 0 39 0 0 0 0 0 0 0 0 0 0 0 0 0 0 0 0 0 0 0 0 0 0 0 0 0 27 23 0 0 0 0 0 0 0 24 0 0 0 0 0 0 0 0 0 0 0 0 0 0 0 0 0 0 0 0 0 0 0 0 0 0 0 27 0 0 0 32 0 0 0 0 0 0 0 0 35 34 37 0 0 0 0 0 0 0 0 0 25 0 
		42 0 0 0 0 0 0 0 39 0 36 38 0 37 0 0 23 0 0 0 0 39 0 0 0 0 0 0 22 0 0 0 0 0 0 0 0 0 39 0 0 0 0 0 0 32 0 0 0 0 34 0 0 0 0 0 0 0 23 0 0 27 28 0 40 40 0 0 0 0 0 0 32 0 0 0 0 0 30 0 0 0 0 0 0 0 0 0 0 0 0 0 0 
		43 0 0 0 0 0 0 0 0 0 0 0 0 0 0 0 31 0 0 0 0 0 0 0 27 0 0 0 0 0 35 0 0 0 0 0 0 0 0 38 0 0 0 0 0 0 0 0 0 25 35 0 0 0 0 0 0 40 0 0 0 0 0 0 0 0 0 0 0 30 34 28 0 0 0 0 0 0 35 0 0 0 0 23 0 0 0 0 0 0 0 0 0 
		44 0 0 0 0 0 0 0 0 0 0 0 0 0 0 0 0 0 0 0 0 0 0 0 0 0 0 0 0 0 0 0 0 0 0 0 0 0 0 35 0 38 0 32 0 0 0 0 0 0 0 0 0 0 0 0 0 0 0 0 0 0 0 0 0 0 0 0 0 0 0 0 0 0 0 0 0 0 0 0 0 0 0 0 31 20 0 0 0 0 0 0 0 
		45 0 0 0 0 0 0 0 0 0 0 0 0 0 0 0 0 0 0 0 0 0 0 0 0 0 0 0 0 0 0 0 0 0 0 37 0 0 0 39 0 0 0 0 0 0 0 0 0 0 0 0 20 0 0 0 36 0 0 0 0 0 0 40 36 0 0 0 0 0 0 0 0 0 0 0 0 0 0 0 0 0 0 0 0 0 0 0 0 0 0 0 20 
		46 0 22 0 0 0 26 0 0 0 0 0 0 0 0 0 0 0 0 0 27 20 0 0 0 0 0 0 0 20 0 0 0 0 0 0 0 0 31 0 0 25 0 0 0 0 0 0 0 0 0 0 21 0 0 0 0 0 0 0 0 0 0 0 34 32 0 0 0 0 0 0 0 0 0 0 0 0 0 27 0 0 0 0 0 26 0 0 30 28 0 0 0 
		47 0 0 0 0 0 0 24 0 0 0 0 0 0 0 0 0 0 0 0 0 20 0 37 0 0 0 0 0 25 0 0 0 0 0 0 0 0 0 0 0 0 0 0 0 0 0 0 0 20 0 0 0 0 0 37 0 0 0 0 0 39 0 0 0 0 0 0 0 0 0 0 0 0 0 0 27 0 0 0 0 0 0 0 0 0 24 29 0 0 0 0 0 
		48 0 0 0 0 0 0 0 0 0 0 0 0 0 0 0 0 0 0 0 0 0 0 0 0 0 0 0 0 0 23 0 28 0 39 25 0 0 0 0 0 37 0 0 25 0 0 0 20 0 0 0 0 22 0 0 0 0 35 0 0 0 0 0 0 0 0 0 0 0 0 0 0 0 0 0 0 30 0 0 0 0 0 0 0 0 0 0 0 0 0 0 0 
		49 26 0 0 0 0 0 35 0 0 36 0 0 0 0 0 0 0 0 0 34 0 0 0 0 0 0 0 0 0 0 34 0 0 0 0 0 0 0 28 0 0 0 34 35 0 0 0 0 0 0 0 0 0 0 0 0 36 0 0 0 0 0 0 0 0 0 0 0 0 0 0 0 0 0 0 0 0 0 0 0 38 0 0 22 0 0 23 0 0 0 36 0 
		50 0 0 0 0 0 0 0 0 0 0 0 0 0 20 0 0 0 0 0 40 0 0 0 0 0 0 0 0 0 0 28 0 0 0 0 0 0 0 34 0 0 0 0 0 0 0 0 0 0 0 0 0 23 0 0 0 0 0 0 0 0 0 0 0 0 0 0 0 0 0 0 0 0 0 0 23 0 0 27 0 0 0 0 0 0 0 0 0 0 0 0 0 
		51 0 0 0 32 0 0 0 0 40 35 0 0 0 0 0 0 0 0 0 0 0 27 0 38 0 0 0 29 38 0 0 0 0 0 0 0 21 0 0 0 0 0 0 0 0 20 21 0 0 0 0 0 0 0 0 0 0 0 0 0 0 0 0 0 0 26 0 0 0 0 0 0 0 0 37 0 0 0 0 0 0 0 0 0 0 0 0 0 0 0 0 0 
		52 0 0 0 0 0 0 0 0 0 0 0 0 0 0 31 0 0 0 0 0 0 0 0 0 0 0 0 0 0 36 0 0 0 0 0 30 0 0 0 0 28 0 0 0 0 0 0 0 22 0 23 0 0 0 22 37 0 0 0 0 0 0 40 0 0 0 0 0 0 0 0 0 0 0 32 35 0 0 23 0 0 0 0 0 0 0 0 0 0 0 0 0 
		53 0 20 0 26 40 0 0 0 0 35 0 0 0 0 39 0 0 0 0 0 0 0 0 0 0 0 0 0 0 31 0 0 0 0 0 35 0 0 0 0 0 0 0 0 0 0 0 0 0 0 0 0 0 0 0 31 0 0 0 0 0 0 0 0 0 0 0 36 0 0 0 0 0 0 0 0 0 0 0 0 22 0 0 0 0 0 0 0 25 0 0 40 
		54 0 0 0 0 0 29 0 0 0 0 0 0 0 38 0 0 0 0 24 0 0 0 0 0 0 0 0 0 0 34 0 0 0 0 0 0 0 0 0 0 0 0 0 0 0 0 0 37 0 0 0 0 22 0 0 0 0 0 0 0 0 0 0 0 0 0 0 0 0 0 0 0 0 0 0 30 0 0 0 0 0 0 0 0 0 0 0 22 0 0 0 0 
		55 30 28 33 0 0 0 0 0 25 30 0 0 0 0 0 0 0 0 0 0 0 0 0 0 0 0 0 0 23 0 0 0 0 30 0 0 0 0 0 0 0 0 0 0 0 36 0 0 0 0 0 0 37 31 0 0 0 0 38 0 0 0 0 0 0 30 31 0 0 0 0 0 0 0 0 0 31 0 0 0 0 0 40 0 0 0 0 0 0 0 0 0 
		56 0 0 0 0 0 0 0 0 0 0 0 0 0 20 0 35 0 0 32 0 0 0 0 0 35 32 0 0 0 0 0 0 22 0 0 0 28 0 0 0 0 0 0 40 0 0 0 0 0 36 0 0 0 0 0 0 0 0 0 0 0 0 0 24 0 35 20 32 0 0 0 0 38 0 0 0 34 0 0 0 0 0 0 22 29 0 0 0 0 0 25 0 
		57 0 0 0 0 0 0 0 0 0 39 0 0 0 35 0 0 0 0 0 0 0 0 0 0 0 0 0 0 0 0 0 0 0 0 0 0 0 0 0 0 0 0 23 0 0 0 0 0 35 0 0 0 0 0 0 0 0 0 0 0 39 0 0 0 0 0 0 0 0 0 0 24 0 0 0 0 0 0 0 0 0 0 0 0 0 0 0 0 0 0 0 0 
		58 0 37 28 0 34 0 0 0 24 0 0 0 0 0 0 0 28 0 0 0 0 25 0 0 0 0 24 0 0 26 0 32 0 0 0 0 25 22 0 0 0 0 0 0 0 0 0 0 0 0 0 0 0 0 0 38 0 0 0 0 0 0 32 0 0 32 0 0 0 0 0 0 0 0 37 0 0 36 25 0 0 0 0 0 0 0 24 0 0 0 0 0 
		59 0 0 0 0 0 0 0 25 0 0 0 0 0 0 0 26 0 0 0 0 0 0 26 0 36 0 0 0 0 0 0 0 0 0 0 0 0 0 0 0 0 0 0 0 0 0 0 0 0 0 0 0 0 0 0 0 0 0 0 0 0 0 0 0 0 0 0 0 0 0 0 0 0 0 0 0 0 37 0 0 0 0 28 0 0 0 0 27 0 0 0 0 
		60 0 0 35 0 0 0 0 0 0 0 0 0 0 0 0 0 0 0 0 0 0 0 0 0 0 0 0 0 0 0 0 0 0 0 0 0 0 0 0 0 0 0 27 0 0 0 0 39 0 0 0 0 0 0 0 0 0 39 0 0 0 0 0 0 0 0 0 0 0 33 0 0 26 0 0 0 0 0 0 0 0 0 0 0 0 0 0 0 0 0 0 0 
		61 0 0 0 0 0 0 0 0 0 0 0 0 0 0 0 0 32 40 0 29 0 0 0 37 0 0 0 0 0 0 0 0 0 0 0 0 0 35 0 0 37 0 28 0 0 0 0 0 0 0 0 0 0 0 0 0 0 0 0 0 0 0 0 0 0 40 0 0 0 0 0 36 0 0 0 0 0 0 26 0 0 0 0 25 0 0 0 0 32 0 0 40 
		62 0 33 34 0 0 0 0 0 0 0 40 0 0 0 0 0 0 0 0 0 0 37 0 0 0 0 0 33 0 0 0 0 35 0 0 0 0 0 0 0 0 0 0 0 0 40 0 0 0 0 0 0 40 0 0 0 0 0 32 0 0 0 0 27 0 0 0 0 0 0 0 0 0 0 0 0 0 0 0 0 0 0 0 0 0 0 0 0 0 0 0 0 
		63 0 0 0 0 0 0 0 0 0 33 0 0 0 0 0 0 0 30 0 0 0 28 0 0 0 0 36 0 0 0 0 0 38 36 0 0 0 0 0 0 0 0 40 0 0 36 34 0 0 0 0 0 0 0 0 0 24 0 0 0 0 0 27 0 25 0 0 0 0 0 0 0 0 0 0 0 0 0 0 0 0 0 0 0 0 0 0 0 0 0 0 0 
		64 0 0 0 0 0 0 0 0 0 0 33 0 0 0 0 0 0 0 0 0 0 0 0 0 0 0 0 0 24 0 0 0 0 0 0 31 0 28 0 33 0 0 40 0 0 0 32 0 0 0 0 0 0 0 0 0 0 0 0 0 0 0 0 25 0 0 0 22 0 0 0 0 0 0 0 0 0 0 0 0 0 0 22 0 0 0 0 0 0 0 0 0 
		65 0 23 0 0 33 33 0 0 0 0 0 0 38 0 0 33 0 23 0 0 0 24 32 0 0 0 0 0 0 21 0 0 0 0 34 0 0 27 0 0 0 27 0 0 0 0 0 0 0 0 0 26 0 0 0 30 35 0 32 0 0 40 0 0 0 0 0 0 0 0 0 0 0 0 0 0 26 0 30 0 0 0 28 33 0 0 0 0 0 0 0 0 
		66 0 0 0 0 0 0 0 0 0 0 0 0 0 0 0 0 0 0 0 0 0 0 0 0 0 22 0 0 0 0 0 0 0 0 0 35 0 0 0 0 0 0 0 0 0 0 0 0 0 0 0 0 0 0 0 31 20 0 0 0 0 0 0 0 0 0 0 0 0 0 0 0 0 0 0 0 0 0 0 0 0 0 0 0 0 0 0 0 0 0 0 0 
		67 0 25 21 0 0 23 0 22 26 0 0 0 0 0 24 0 0 0 0 0 0 0 0 0 0 0 0 0 0 0 0 0 0 0 0 0 36 0 0 0 0 0 0 0 0 0 0 0 0 0 0 0 0 36 0 0 32 0 0 0 0 0 0 0 22 0 0 0 0 0 0 0 0 0 0 0 33 0 0 30 0 0 0 0 0 0 0 0 0 0 0 0 
		68 0 0 0 0 0 29 0 0 0 37 0 0 0 0 0 0 0 0 0 0 0 0 0 0 0 0 0 0 0 0 36 0 0 0 0 0 0 0 0 0 0 0 0 30 0 0 0 0 0 0 0 0 0 0 0 0 0 0 0 0 0 0 0 0 0 0 0 0 0 0 0 0 0 0 0 0 0 0 0 0 0 0 0 0 0 0 0 0 0 0 0 30 
		69 0 0 0 0 21 0 0 0 40 0 0 0 0 0 0 0 0 0 0 0 0 0 0 0 31 0 0 0 0 0 0 0 0 0 0 0 0 0 0 0 0 32 0 34 0 0 0 0 0 0 0 0 0 0 0 0 0 0 0 0 33 0 0 0 0 0 0 0 0 0 0 25 0 0 0 0 0 0 0 0 0 0 0 0 0 0 0 0 0 0 0 0 
		70 0 0 0 0 32 0 0 0 0 0 35 0 0 0 0 0 0 0 0 0 0 25 0 0 0 0 0 0 0 0 0 0 20 0 0 0 0 0 0 20 0 0 0 28 0 0 0 0 0 0 0 0 0 0 0 0 0 0 0 0 0 0 0 0 0 0 0 0 0 0 0 0 0 0 0 0 0 0 0 33 0 0 0 0 0 0 0 0 0 0 0 0 
		71 24 0 0 0 0 0 0 0 0 28 0 0 0 31 22 0 0 25 0 0 0 0 25 0 0 0 0 0 0 0 0 29 0 40 0 0 0 22 0 0 31 0 32 0 0 0 0 0 0 0 0 0 0 0 0 0 0 24 0 0 0 36 0 0 0 0 0 0 0 25 0 0 0 0 0 0 0 0 0 0 0 0 0 36 0 0 0 0 0 0 0 0 
		72 0 0 0 0 0 0 0 0 0 0 0 0 32 0 0 0 0 0 0 0 0 32 0 0 0 0 26 0 0 37 0 0 0 0 0 29 23 0 0 0 0 0 0 0 0 0 0 0 0 0 0 0 0 0 0 0 38 0 0 0 26 0 0 0 0 0 0 0 0 0 0 0 0 37 0 0 0 0 0 0 0 0 0 0 40 0 0 0 0 0 0 0 
		73 0 0 0 0 0 0 0 0 34 0 0 0 21 0 28 0 0 0 0 0 0 0 0 0 0 0 33 0 0 0 0 0 37 0 0 0 36 0 0 36 0 0 0 0 0 0 0 0 0 0 0 0 0 0 0 0 0 0 0 0 0 0 0 0 0 0 0 0 0 0 0 0 37 0 0 0 0 0 0 22 0 0 0 0 0 0 0 0 0 0 0 0 
		74 0 0 39 0 0 0 0 0 39 0 0 0 0 28 0 0 0 26 0 0 0 0 0 23 0 0 0 0 0 0 0 0 0 0 0 0 0 24 0 0 0 0 0 0 0 0 0 0 0 0 0 37 32 0 0 0 0 0 37 0 0 0 0 0 0 0 0 0 0 0 0 0 0 0 0 0 0 20 0 26 0 0 0 0 0 0 0 0 0 0 0 0 
		75 0 0 0 0 0 0 0 0 0 0 0 0 0 0 0 0 0 0 0 0 0 0 0 0 0 0 0 0 0 0 0 28 0 0 0 0 0 20 0 0 0 0 0 0 0 0 0 27 0 0 23 0 35 0 30 0 0 0 0 0 0 0 0 0 0 0 0 0 0 0 0 0 0 0 0 0 0 0 0 0 0 0 0 0 0 0 0 32 32 0 0 0 
		76 0 0 0 0 0 0 0 0 0 0 0 39 0 0 0 0 0 0 0 0 0 39 0 0 0 0 0 0 0 0 0 0 31 0 0 0 30 0 0 0 0 0 0 0 0 0 0 0 30 0 0 0 0 0 0 31 34 0 0 0 0 0 0 0 0 26 0 33 0 0 0 0 0 0 0 0 0 0 0 0 0 0 0 0 0 0 0 0 0 0 0 0 
		77 0 0 26 0 0 39 0 0 0 33 0 0 0 34 0 30 0 33 28 0 0 0 33 0 0 0 0 0 0 0 0 0 0 0 0 0 0 0 0 0 0 0 30 35 0 0 0 0 0 0 0 0 0 0 0 0 0 0 36 37 0 0 0 0 0 0 0 0 0 0 0 0 0 0 20 0 0 0 0 0 0 0 0 0 0 0 0 0 0 0 0 0 
		78 21 0 0 0 40 0 0 0 0 23 0 0 0 0 0 0 30 0 0 0 0 0 0 0 0 0 0 0 0 24 0 0 0 0 0 0 0 37 0 0 0 35 0 0 0 0 27 0 0 0 27 0 23 0 0 0 0 0 25 0 0 26 0 0 0 30 0 0 0 0 0 0 0 0 0 0 0 0 0 0 0 0 0 0 0 0 0 0 29 0 0 0 
		79 0 0 0 0 0 26 0 0 0 0 35 0 0 0 29 0 0 0 0 0 0 0 0 0 0 0 0 28 0 0 0 0 0 0 31 0 0 0 0 0 0 34 0 0 0 0 0 0 0 0 0 0 0 0 0 0 0 0 0 0 0 0 0 0 0 0 0 30 0 0 33 0 0 22 26 0 0 0 0 0 0 0 0 0 0 0 31 0 0 0 0 0 
		80 0 0 0 37 0 0 0 0 23 0 0 0 0 0 0 0 20 0 0 0 0 0 0 0 0 0 0 0 0 26 33 0 0 0 32 0 0 0 0 0 0 37 0 0 0 0 0 0 0 38 0 0 0 22 0 0 0 0 0 0 0 0 0 0 0 0 0 0 0 0 0 0 0 0 0 0 0 0 0 0 0 0 0 0 0 0 0 0 0 0 0 0 
		81 0 0 0 0 0 0 0 0 0 0 0 0 0 0 0 0 0 0 0 0 0 0 0 0 29 0 0 0 0 0 24 0 0 0 0 0 0 0 27 0 0 0 0 0 0 0 0 0 0 0 0 0 0 0 0 0 0 0 0 0 0 0 0 0 0 0 0 0 0 0 0 0 0 0 0 0 0 0 0 0 0 0 0 0 0 0 0 0 0 0 0 0 
		82 0 0 0 28 0 39 0 38 38 0 0 0 0 0 0 0 0 0 0 0 26 0 22 0 0 40 0 0 0 0 0 0 0 0 0 0 0 0 25 0 38 0 0 23 0 0 0 0 0 0 0 0 0 0 0 40 0 0 0 28 0 0 0 0 22 28 0 0 0 0 0 0 0 0 0 0 0 0 0 0 0 0 0 0 0 0 0 36 0 0 31 0 
		83 0 24 0 0 0 0 0 0 0 37 0 0 37 0 0 0 0 39 30 0 0 40 0 0 0 0 0 0 0 0 0 0 0 0 0 0 0 0 0 0 0 0 0 0 31 0 0 0 0 22 0 0 0 0 0 0 22 0 0 0 0 25 0 0 0 33 0 0 0 0 0 36 0 0 0 0 0 0 0 0 0 0 0 0 0 0 0 0 0 0 0 0 
		84 0 0 0 0 0 0 0 0 0 0 0 0 22 35 0 0 0 0 0 0 0 0 0 0 0 34 0 0 0 0 0 0 0 0 0 0 0 0 29 0 0 0 0 0 20 0 26 0 0 0 0 0 0 0 0 0 29 0 0 0 0 0 0 0 0 0 0 0 0 0 0 0 40 0 0 0 0 0 0 0 0 0 0 0 0 0 0 0 0 0 0 0 
		85 0 0 0 0 0 0 0 0 0 0 22 0 0 0 23 0 0 0 0 0 0 0 0 0 0 0 0 0 0 0 0 0 0 0 0 0 0 0 0 0 0 0 0 0 0 0 0 24 0 0 0 0 0 0 0 0 0 0 0 0 0 0 0 0 0 0 0 0 0 0 0 0 0 0 0 0 0 0 0 0 0 0 0 0 0 0 0 0 0 0 0 0 
		86 0 0 0 36 0 0 0 0 0 0 0 0 0 0 0 0 33 0 0 0 0 0 0 0 0 0 0 25 0 0 0 0 0 29 0 0 0 0 0 0 29 0 0 0 0 0 0 29 0 23 0 0 0 0 0 0 0 0 24 0 0 0 0 0 0 0 0 0 0 0 0 0 0 0 0 0 0 0 0 31 0 0 0 0 0 0 0 0 0 0 0 0 
		87 0 0 0 0 0 0 0 34 0 0 0 0 0 0 40 0 38 0 0 0 0 0 0 0 0 0 0 0 0 0 0 0 0 0 0 0 0 0 0 0 0 0 0 0 0 0 30 0 0 0 0 0 0 0 22 0 0 0 0 27 0 0 0 0 0 0 0 0 0 0 0 0 0 0 0 32 0 0 0 0 0 0 36 0 0 0 0 0 0 0 0 0 
		88 23 0 0 0 0 40 0 40 0 25 23 0 0 30 0 0 22 0 0 0 0 0 0 0 0 0 0 0 0 0 0 32 0 0 0 0 0 0 0 0 0 0 0 0 0 0 28 0 0 0 0 0 0 25 0 0 0 0 0 0 0 32 0 0 0 0 0 0 0 0 0 0 0 0 0 32 0 0 29 0 0 0 0 0 0 0 0 0 0 0 0 0 
		89 0 0 0 0 0 0 0 0 0 0 35 0 0 0 0 0 0 0 0 0 0 0 0 26 0 0 0 0 35 0 0 0 0 40 0 0 0 0 0 32 0 0 0 0 0 0 0 0 0 0 0 0 0 0 0 0 0 0 0 0 0 0 0 0 0 0 0 0 0 0 0 0 0 0 0 0 0 0 0 0 0 0 0 0 0 0 0 0 0 0 0 0 
		90 0 0 0 0 0 0 30 25 0 0 0 0 0 0 0 0 0 0 0 0 0 0 29 0 31 0 0 0 0 27 0 0 0 0 0 0 0 0 0 0 0 25 0 0 0 0 0 0 0 36 0 0 0 0 0 0 25 0 0 0 0 0 0 0 0 0 0 0 0 0 0 0 0 0 0 0 0 0 0 0 0 0 31 0 0 0 0 0 0 0 0 0 
		91 0 0 0 30 0 32 0 0 25 0 0 0 0 0 33 0 0 0 0 0 0 0 0 0 0 0 0 0 34 0 0 0 0 28 0 0 0 0 0 0 0 0 0 0 0 20 0 0 0 0 0 0 0 40 0 0 0 0 0 0 0 40 0 0 0 0 0 0 30 0 0 0 0 0 0 0 0 0 0 0 0 0 0 0 0 0 0 0 0 0 0 0 
;
